SDVRP instances/p02/p02_3070_tsplib0_split0.vrp
NAME:.\SDVRP_split
BEST_KNOWN: 0
COMMENT: 0
DIMENSION: 477
CAPACITY: 140
EDGE_WEIGHT_FORMAT: FUNCTION
EDGE_WEIGHT_TYPE: EXACT_2D
NODE_COORD_SECTION
1 0.00000 0.00000
2 -18 -18
3 -18 -18
4 -18 -18
5 -18 -18
6 -18 -18
7 -18 -18
8 -18 -18
9 -18 -18
10 -4 -14
11 -4 -14
12 -4 -14
13 -4 -14
14 -19 5
15 -19 5
16 -19 5
17 -19 5
18 -19 5
19 -19 5
20 -19 5
21 -19 5
22 5 -5
23 5 -5
24 5 -5
25 5 -5
26 5 -5
27 5 -5
28 15 -20
29 15 -20
30 15 -20
31 15 -20
32 15 -20
33 -7 -6
34 -7 -6
35 -7 -6
36 -7 -6
37 -7 -6
38 -7 -6
39 -7 -6
40 -7 -6
41 -7 -6
42 10 10
43 10 10
44 10 10
45 10 10
46 10 10
47 10 10
48 10 10
49 10 10
50 10 10
51 15 5
52 15 5
53 15 5
54 15 5
55 15 5
56 15 5
57 15 5
58 15 5
59 -14 19
60 -14 19
61 -14 19
62 -14 19
63 -14 19
64 -14 19
65 -14 19
66 0 26
67 0 26
68 0 26
69 15 25
70 15 25
71 15 25
72 15 25
73 15 25
74 15 25
75 -5 11
76 -5 11
77 -5 11
78 -5 11
79 22 -5
80 22 -5
81 22 -5
82 22 -5
83 22 -5
84 22 -5
85 22 -5
86 22 -5
87 22 17
88 22 17
89 22 17
90 22 17
91 22 -16
92 22 -16
93 22 -16
94 22 -16
95 22 -16
96 22 -16
97 22 -16
98 22 -16
99 -19 -4
100 -19 -4
101 -19 -4
102 -19 -4
103 -7 4
104 -7 4
105 -7 4
106 -7 4
107 -7 4
108 -7 4
109 -31 16
110 -31 16
111 -31 16
112 22 8
113 22 8
114 22 8
115 22 8
116 22 8
117 22 8
118 22 8
119 22 8
120 26 -26
121 26 -26
122 26 -26
123 26 -26
124 26 -26
125 4 -27
126 4 -27
127 4 -27
128 4 -27
129 4 -27
130 4 -27
131 4 -27
132 -14 -27
133 -14 -27
134 -14 -27
135 -14 -27
136 -29 -12
137 -29 -12
138 -29 -12
139 -29 -12
140 -29 -12
141 -33 3
142 -33 3
143 -33 3
144 -33 3
145 -33 3
146 -33 3
147 -33 3
148 -23 24
149 -23 24
150 -23 24
151 -23 24
152 -23 24
153 1 6
154 1 6
155 1 6
156 1 6
157 1 6
158 1 6
159 1 6
160 1 6
161 1 6
162 1 6
163 15 -6
164 15 -6
165 15 -6
166 -5 -24
167 -5 -24
168 -5 -24
169 -5 -24
170 12 -14
171 12 -14
172 12 -14
173 12 -14
174 3 -14
175 3 -14
176 3 -14
177 3 -14
178 3 -14
179 3 -14
180 3 -14
181 -9 36
182 -9 36
183 -9 36
184 -9 36
185 -9 36
186 -9 36
187 -9 36
188 -9 36
189 -18 13
190 -18 13
191 -18 13
192 -18 13
193 -18 13
194 -14 -11
195 -14 -11
196 -14 -11
197 -14 -11
198 -14 -11
199 -14 -11
200 -14 -11
201 10 0
202 10 0
203 10 0
204 10 0
205 10 0
206 10 0
207 10 0
208 10 0
209 15 10
210 15 10
211 15 10
212 15 10
213 15 10
214 15 10
215 15 10
216 15 10
217 14 -30
218 14 -30
219 14 -30
220 14 -30
221 14 -30
222 14 -30
223 14 -30
224 14 -30
225 20 -25
226 20 -25
227 20 -25
228 20 -25
229 7 26
230 7 26
231 7 26
232 7 26
233 7 26
234 7 26
235 7 26
236 7 26
237 7 26
238 -10 20
239 -10 20
240 -10 20
241 -10 20
242 -10 20
243 -10 20
244 -10 20
245 -10 20
246 -10 20
247 -10 10
248 -10 10
249 -10 10
250 -10 10
251 -10 10
252 -10 10
253 -10 10
254 -28 -23
255 -28 -23
256 -28 -23
257 -28 -23
258 -28 -23
259 -28 -23
260 -25 -26
261 -25 -26
262 -25 -26
263 -25 -26
264 -25 -26
265 -24 -21
266 -24 -21
267 -24 -21
268 -24 -21
269 -19 8
270 -19 8
271 -19 8
272 -19 8
273 -19 8
274 -19 8
275 10 -10
276 10 -10
277 10 -10
278 10 -10
279 11 2
280 11 2
281 11 2
282 10 -25
283 10 -25
284 10 -25
285 10 -25
286 10 -25
287 10 -25
288 10 -25
289 10 -25
290 10 -25
291 8 -19
292 8 -19
293 8 -19
294 8 -19
295 8 -19
296 8 -19
297 -28 -2
298 -28 -2
299 -28 -2
300 -28 -2
301 -28 -2
302 -28 -2
303 -28 -2
304 -28 -2
305 -25 16
306 -25 16
307 -25 16
308 -25 16
309 -25 16
310 -25 16
311 -25 16
312 -25 16
313 -25 16
314 -11 -1
315 -11 -1
316 -11 -1
317 -11 -1
318 -11 -1
319 -11 -1
320 14 -2
321 14 -2
322 14 -2
323 14 -2
324 14 -2
325 15 17
326 15 17
327 15 17
328 15 17
329 15 17
330 15 17
331 27 1
332 27 1
333 27 1
334 27 1
335 27 1
336 27 1
337 -30 30
338 -30 30
339 -30 30
340 -30 30
341 -30 30
342 -30 30
343 -30 30
344 -30 30
345 -30 30
346 -30 30
347 -34 -15
348 -34 -15
349 -34 -15
350 -34 -15
351 -34 -15
352 -34 -15
353 -34 -15
354 -34 -15
355 -34 -15
356 25 -13
357 25 -13
358 25 -13
359 25 -13
360 25 -13
361 0 20
362 0 20
363 0 20
364 0 20
365 0 20
366 0 20
367 0 20
368 0 20
369 30 24
370 30 24
371 30 24
372 30 24
373 24 -36
374 24 -36
375 24 -36
376 24 -36
377 24 -36
378 24 -36
379 -4 -34
380 -4 -34
381 -4 -34
382 -4 -34
383 -10 -20
384 -10 -20
385 -20 -10
386 -20 -10
387 -20 -10
388 -20 -10
389 -20 -10
390 -25 -35
391 -25 -35
392 -25 -35
393 -25 -35
394 10 30
395 10 30
396 10 30
397 10 30
398 10 30
399 10 30
400 10 30
401 17 32
402 17 32
403 17 32
404 17 32
405 17 32
406 17 32
407 17 32
408 17 32
409 5 2
410 5 2
411 5 2
412 5 2
413 5 2
414 5 2
415 5 2
416 5 2
417 -2 -7
418 -2 -7
419 -2 -7
420 -2 -7
421 -2 -7
422 -2 -7
423 -2 -7
424 10 -36
425 10 -36
426 10 -36
427 10 -36
428 10 -36
429 10 -36
430 10 -36
431 10 -36
432 10 -36
433 10 -36
434 26 -32
435 26 -32
436 26 -32
437 26 -32
438 26 -32
439 26 -32
440 26 -32
441 26 -32
442 26 -32
443 19 -35
444 19 -35
445 19 -35
446 19 -35
447 19 -35
448 19 -35
449 19 -35
450 19 -35
451 -5 20
452 -5 20
453 -5 20
454 -5 20
455 -5 20
456 -13 -16
457 -13 -16
458 -13 -16
459 -13 -16
460 -13 -16
461 -13 -16
462 -13 -16
463 -13 -16
464 0 -20
465 0 -20
466 0 -20
467 0 -20
468 0 -20
469 0 -20
470 0 -20
471 0 -20
472 0 -20
473 0 -20
474 0 -3
475 0 -3
476 0 -3
477 0 -3
DEMAND_SECTION
1 0
2 28
3 28
4 28
5 1
6 1
7 1
8 1
9 1
10 28
11 28
12 7
13 1
14 28
15 14
16 7
17 1
18 1
19 1
20 1
21 1
22 28
23 28
24 14
25 1
26 1
27 1
28 28
29 28
30 28
31 7
32 1
33 28
34 28
35 28
36 1
37 1
38 1
39 1
40 1
41 1
42 28
43 28
44 7
45 1
46 1
47 1
48 1
49 1
50 1
51 28
52 14
53 1
54 1
55 1
56 1
57 1
58 1
59 28
60 14
61 7
62 1
63 1
64 1
65 1
66 28
67 14
68 1
69 28
70 28
71 28
72 1
73 1
74 1
75 28
76 28
77 7
78 1
79 28
80 28
81 7
82 1
83 1
84 1
85 1
86 1
87 28
88 28
89 14
90 1
91 28
92 28
93 14
94 7
95 1
96 1
97 1
98 1
99 28
100 28
101 1
102 1
103 28
104 14
105 1
106 1
107 1
108 1
109 28
110 28
111 14
112 28
113 28
114 28
115 1
116 1
117 1
118 1
119 1
120 28
121 28
122 14
123 1
124 1
125 28
126 14
127 1
128 1
129 1
130 1
131 1
132 28
133 28
134 14
135 7
136 28
137 28
138 14
139 7
140 1
141 28
142 28
143 14
144 1
145 1
146 1
147 1
148 28
149 28
150 28
151 1
152 1
153 28
154 28
155 14
156 7
157 1
158 1
159 1
160 1
161 1
162 1
163 28
164 14
165 1
166 28
167 28
168 28
169 1
170 28
171 14
172 7
173 1
174 28
175 14
176 1
177 1
178 1
179 1
180 1
181 28
182 28
183 28
184 1
185 1
186 1
187 1
188 1
189 28
190 28
191 28
192 1
193 1
194 28
195 28
196 28
197 1
198 1
199 1
200 1
201 28
202 14
203 7
204 1
205 1
206 1
207 1
208 1
209 28
210 28
211 28
212 1
213 1
214 1
215 1
216 1
217 28
218 28
219 7
220 1
221 1
222 1
223 1
224 1
225 28
226 28
227 28
228 1
229 28
230 28
231 7
232 1
233 1
234 1
235 1
236 1
237 1
238 28
239 28
240 7
241 1
242 1
243 1
244 1
245 1
246 1
247 28
248 28
249 28
250 1
251 1
252 1
253 1
254 28
255 14
256 7
257 1
258 1
259 1
260 28
261 14
262 1
263 1
264 1
265 28
266 28
267 14
268 7
269 28
270 28
271 14
272 7
273 1
274 1
275 28
276 28
277 28
278 7
279 28
280 28
281 1
282 28
283 28
284 7
285 1
286 1
287 1
288 1
289 1
290 1
291 28
292 28
293 7
294 1
295 1
296 1
297 28
298 28
299 28
300 1
301 1
302 1
303 1
304 1
305 28
306 28
307 14
308 1
309 1
310 1
311 1
312 1
313 1
314 28
315 28
316 14
317 7
318 1
319 1
320 28
321 28
322 14
323 7
324 1
325 28
326 14
327 1
328 1
329 1
330 1
331 28
332 28
333 28
334 7
335 1
336 1
337 28
338 28
339 14
340 7
341 1
342 1
343 1
344 1
345 1
346 1
347 28
348 28
349 14
350 7
351 1
352 1
353 1
354 1
355 1
356 28
357 28
358 1
359 1
360 1
361 28
362 28
363 14
364 7
365 1
366 1
367 1
368 1
369 28
370 28
371 7
372 1
373 28
374 28
375 1
376 1
377 1
378 1
379 28
380 28
381 28
382 7
383 28
384 28
385 28
386 28
387 1
388 1
389 1
390 28
391 28
392 1
393 1
394 28
395 28
396 1
397 1
398 1
399 1
400 1
401 28
402 28
403 7
404 1
405 1
406 1
407 1
408 1
409 28
410 28
411 28
412 1
413 1
414 1
415 1
416 1
417 28
418 14
419 1
420 1
421 1
422 1
423 1
424 28
425 28
426 28
427 7
428 1
429 1
430 1
431 1
432 1
433 1
434 28
435 28
436 28
437 1
438 1
439 1
440 1
441 1
442 1
443 28
444 28
445 28
446 7
447 1
448 1
449 1
450 1
451 28
452 28
453 28
454 7
455 1
456 28
457 28
458 28
459 1
460 1
461 1
462 1
463 1
464 28
465 28
466 28
467 7
468 1
469 1
470 1
471 1
472 1
473 1
474 28
475 14
476 1
477 1
DEPOT_SECTION
1
-1
EOF