SDVRP instances/p02/p02_3070_tsplib0_split0.sol
476 -8 6 5 2 4 3 1 7 264 267 266 -10 9 167 165 166 -14 15 19 20 304 309 307 312 337 341 339 344 336 343 345 338 342 340 -17 16 18 13 143 145 142 146 144 140 141 300 297 303 301 299 -25 24 21 22 23 474 475 476 473 -26 276 277 275 274 172 170 169 -28 27 29 226 225 -31 30 224 227 436 434 439 440 441 437 438 435 433 171 -35 37 38 36 39 33 34 32 40 -48 44 41 228 229 236 232 231 230 362 360 -49 45 43 47 46 42 213 214 215 208 211 212 209 210 -50 55 51 57 54 52 53 332 335 334 333 331 330 -56 117 115 113 114 111 118 116 112 323 320 321 322 -59 58 62 60 63 61 64 149 147 148 150 151 -66 67 65 180 185 186 184 187 183 181 182 -70 73 69 71 68 72 324 325 328 326 327 329 -75 77 76 74 240 244 237 243 238 239 241 242 245 -88 87 86 89 369 371 368 370 -92 90 97 94 95 93 91 96 355 356 359 358 357 -105 103 102 106 107 104 249 250 252 251 246 247 248 -119 120 123 121 122 374 376 375 377 372 373 -130 126 127 129 128 124 125 379 381 380 378 168 -134 131 132 133 382 383 419 420 421 418 -135 137 138 139 136 298 296 302 -155 154 153 152 414 413 411 408 410 412 -159 161 160 157 158 156 235 234 233 393 395 396 394 399 397 398 404 406 405 402 407 400 401 403 -163 162 164 84 82 81 80 83 85 79 78 319 -173 179 174 472 468 469 467 466 471 470 464 465 463 -178 177 176 175 287 285 288 283 289 286 284 281 282 290 291 293 294 292 295 -188 190 189 268 269 -191 192 305 310 308 311 306 110 109 108 273 272 270 271 -194 193 195 314 313 -198 197 199 196 258 253 255 256 254 257 346 347 352 349 348 350 351 354 353 -200 205 204 201 203 202 207 206 279 280 278 409 415 -216 432 426 424 423 427 429 425 430 431 428 -223 217 218 222 220 221 219 447 449 448 442 444 446 445 443 -265 261 260 259 263 262 392 389 391 390 -317 318 316 315 100 101 98 99 385 384 387 386 388 -361 363 364 367 366 365 453 452 454 450 451 -417 416 422 12 11 461 462 457 460 456 455 458 459 0 





OBJ=
2282.375
BEST_KNOWN=
0.000